NAME : HWGrid250
COMMENT : Artificial problem
DIMENSION : 250
EDGE_WEIGHT_TYPE : EUC_2D
NODE_COORD_SECTION
   1    100.0    100.0
   2    200.0    100.0
   3    100.0    200.0
   4    200.0    200.0
   5    100.0    300.0
   6    200.0    300.0
   7    100.0    400.0
   8    200.0    400.0
   9    100.0    500.0
  10    200.0    500.0
  11    100.0    600.0
  12    200.0    600.0
  13    100.0    700.0
  14    200.0    700.0
  15    100.0    800.0
  16    200.0    800.0
  17    100.0    900.0
  18    200.0    900.0
  19    100.0   1000.0
  20    200.0   1000.0
  21    100.0   1100.0
  22    200.0   1100.0
  23    100.0   1200.0
  24    200.0   1200.0
  25    100.0   1300.0
  26    200.0   1300.0
  27    100.0   1400.0
  28    200.0   1400.0
  29    100.0   1500.0
  30    200.0   1500.0
  31    100.0   1600.0
  32    200.0   1600.0
  33    100.0   1700.0
  34    200.0   1700.0
  35    100.0   1800.0
  36    200.0   1800.0
  37    100.0   1900.0
  38    200.0   1900.0
  39    100.0   2000.0
  40    200.0   2000.0
  41    100.0   2100.0
  42    200.0   2100.0
  43    100.0   2200.0
  44    200.0   2200.0
  45    100.0   2300.0
  46    200.0   2300.0
  47    100.0   2400.0
  48    200.0   2400.0
  49    100.0   2500.0
  50    200.0   2500.0
  51    100.0   2600.0
  52    200.0   2600.0
  53    100.0   2700.0
  54    200.0   2700.0
  55    100.0   2800.0
  56    200.0   2800.0
  57    100.0   2900.0
  58    200.0   2900.0
  59    100.0   3000.0
  60    200.0   3000.0
  61    100.0   3100.0
  62    200.0   3100.0
  63    100.0   3200.0
  64    200.0   3200.0
  65    100.0   3300.0
  66    200.0   3300.0
  67    100.0   3400.0
  68    200.0   3400.0
  69    100.0   3500.0
  70    200.0   3500.0
  71    100.0   3600.0
  72    200.0   3600.0
  73    100.0   3700.0
  74    200.0   3700.0
  75    100.0   3800.0
  76    200.0   3800.0
  77    100.0   3900.0
  78    200.0   3900.0
  79    100.0   4000.0
  80    200.0   4000.0
  81    100.0   4100.0
  82    200.0   4100.0
  83    100.0   4200.0
  84    200.0   4200.0
  85    100.0   4300.0
  86    200.0   4300.0
  87    100.0   4400.0
  88    200.0   4400.0
  89    100.0   4500.0
  90    200.0   4500.0
  91    100.0   4600.0
  92    200.0   4600.0
  93    100.0   4700.0
  94    200.0   4700.0
  95    100.0   4800.0
  96    200.0   4800.0
  97    100.0   4900.0
  98    200.0   4900.0
  99    100.0   5000.0
 100    200.0   5000.0
 101    100.0   5100.0
 102    200.0   5100.0
 103    100.0   5200.0
 104    200.0   5200.0
 105    100.0   5300.0
 106    200.0   5300.0
 107    100.0   5400.0
 108    200.0   5400.0
 109    100.0   5500.0
 110    200.0   5500.0
 111    100.0   5600.0
 112    200.0   5600.0
 113    100.0   5700.0
 114    200.0   5700.0
 115    100.0   5800.0
 116    200.0   5800.0
 117    100.0   5900.0
 118    200.0   5900.0
 119    100.0   6000.0
 120    200.0   6000.0
 121    100.0   6100.0
 122    200.0   6100.0
 123    100.0   6200.0
 124    200.0   6200.0
 125    100.0   6300.0
 126    200.0   6300.0
 127    100.0   6400.0
 128    200.0   6400.0
 129    100.0   6500.0
 130    200.0   6500.0
 131    100.0   6600.0
 132    200.0   6600.0
 133    100.0   6700.0
 134    200.0   6700.0
 135    100.0   6800.0
 136    200.0   6800.0
 137    100.0   6900.0
 138    200.0   6900.0
 139    100.0   7000.0
 140    200.0   7000.0
 141    100.0   7100.0
 142    200.0   7100.0
 143    100.0   7200.0
 144    200.0   7200.0
 145    100.0   7300.0
 146    200.0   7300.0
 147    100.0   7400.0
 148    200.0   7400.0
 149    100.0   7500.0
 150    200.0   7500.0
 151    100.0   7600.0
 152    200.0   7600.0
 153    100.0   7700.0
 154    200.0   7700.0
 155    100.0   7800.0
 156    200.0   7800.0
 157    100.0   7900.0
 158    200.0   7900.0
 159    100.0   8000.0
 160    200.0   8000.0
 161    100.0   8100.0
 162    200.0   8100.0
 163    100.0   8200.0
 164    200.0   8200.0
 165    100.0   8300.0
 166    200.0   8300.0
 167    100.0   8400.0
 168    200.0   8400.0
 169    100.0   8500.0
 170    200.0   8500.0
 171    100.0   8600.0
 172    200.0   8600.0
 173    100.0   8700.0
 174    200.0   8700.0
 175    100.0   8800.0
 176    200.0   8800.0
 177    100.0   8900.0
 178    200.0   8900.0
 179    100.0   9000.0
 180    200.0   9000.0
 181    100.0   9100.0
 182    200.0   9100.0
 183    100.0   9200.0
 184    200.0   9200.0
 185    100.0   9300.0
 186    200.0   9300.0
 187    100.0   9400.0
 188    200.0   9400.0
 189    100.0   9500.0
 190    200.0   9500.0
 191    100.0   9600.0
 192    200.0   9600.0
 193    100.0   9700.0
 194    200.0   9700.0
 195    100.0   9800.0
 196    200.0   9800.0
 197    100.0   9900.0
 198    200.0   9900.0
 199    100.0  10000.0
 200    200.0  10000.0
 201    100.0  10100.0
 202    200.0  10100.0
 203    100.0  10200.0
 204    200.0  10200.0
 205    100.0  10300.0
 206    200.0  10300.0
 207    100.0  10400.0
 208    200.0  10400.0
 209    100.0  10500.0
 210    200.0  10500.0
 211    100.0  10600.0
 212    200.0  10600.0
 213    100.0  10700.0
 214    200.0  10700.0
 215    100.0  10800.0
 216    200.0  10800.0
 217    100.0  10900.0
 218    200.0  10900.0
 219    100.0  11000.0
 220    200.0  11000.0
 221    100.0  11100.0
 222    200.0  11100.0
 223    100.0  11200.0
 224    200.0  11200.0
 225    100.0  11300.0
 226    200.0  11300.0
 227    100.0  11400.0
 228    200.0  11400.0
 229    100.0  11500.0
 230    200.0  11500.0
 231    100.0  11600.0
 232    200.0  11600.0
 233    100.0  11700.0
 234    200.0  11700.0
 235    100.0  11800.0
 236    200.0  11800.0
 237    100.0  11900.0
 238    200.0  11900.0
 239    100.0  12000.0
 240    200.0  12000.0
 241    100.0  12100.0
 242    200.0  12100.0
 243    100.0  12200.0
 244    200.0  12200.0
 245    100.0  12300.0
 246    200.0  12300.0
 247    100.0  12400.0
 248    200.0  12400.0
 249    100.0  12500.0
 250    200.0  12500.0
